(set-info :smt-lib-version 2.6)
(set-logic QF_NIA)
(set-info :source |
Generated by: Cristina Borralleras, Daniel Larraz, Albert Oliveras, Enric Rodriguez-Carbonell, Albert Rubio
Generated on: 2017-04-27
Generator: VeryMax
Application: Termination proving
Target solver: barcelogic
|)
(set-info :license "https://creativecommons.org/licenses/by/4.0/")
(set-info :category "industrial")
(set-info :status sat)
(declare-fun Nl2arg11 () Int)
(declare-fun Nl2arg21 () Int)
(declare-fun Nl4arg11 () Int)
(declare-fun Nl4arg21 () Int)
(declare-fun Nl2arg12 () Int)
(declare-fun Nl2arg22 () Int)
(declare-fun Nl4arg12 () Int)
(declare-fun Nl4arg22 () Int)
(declare-fun lam0n0 () Int)
(declare-fun lam0n1 () Int)
(declare-fun lam0n2 () Int)
(declare-fun lam0n3 () Int)
(declare-fun Nl2CT1 () Int)
(declare-fun Nl2CT2 () Int)
(declare-fun lam1n0 () Int)
(declare-fun lam1n1 () Int)
(declare-fun lam1n2 () Int)
(declare-fun lam1n3 () Int)
(declare-fun lam2n0 () Int)
(declare-fun lam2n1 () Int)
(declare-fun lam2n2 () Int)
(declare-fun lam2n3 () Int)
(declare-fun lam3n0 () Int)
(declare-fun lam3n1 () Int)
(declare-fun lam3n2 () Int)
(declare-fun lam4n0 () Int)
(declare-fun lam4n1 () Int)
(declare-fun lam4n2 () Int)
(declare-fun Nl4CT1 () Int)
(declare-fun lam5n0 () Int)
(declare-fun lam5n1 () Int)
(declare-fun lam5n2 () Int)
(declare-fun Nl4CT2 () Int)
(declare-fun lam6n0 () Int)
(declare-fun lam6n1 () Int)
(declare-fun lam6n2 () Int)
(declare-fun lam7n0 () Int)
(declare-fun lam7n1 () Int)
(declare-fun lam7n2 () Int)
(declare-fun lam8n0 () Int)
(declare-fun lam8n1 () Int)
(declare-fun lam8n2 () Int)
(declare-fun lam9n0 () Int)
(declare-fun lam9n1 () Int)
(declare-fun lam9n2 () Int)
(declare-fun lam10n0 () Int)
(declare-fun lam10n1 () Int)
(declare-fun lam10n2 () Int)
(declare-fun lam11n0 () Int)
(declare-fun lam11n1 () Int)
(declare-fun lam11n2 () Int)
(declare-fun lam12n0 () Int)
(declare-fun lam12n1 () Int)
(declare-fun lam13n0 () Int)
(declare-fun lam13n1 () Int)
(declare-fun arg1 () Int)
(declare-fun arg2 () Int)
(declare-fun undef2 () Int)
(declare-fun lam17n0 () Int)
(declare-fun lam17n1 () Int)
(declare-fun lam17n2 () Int)
(declare-fun RFN1_CT () Int)
(declare-fun RFN1_arg2 () Int)
(declare-fun RFN1_arg1 () Int)
(declare-fun lam21n0 () Int)
(declare-fun lam21n1 () Int)
(declare-fun lam21n2 () Int)
(declare-fun lam25n0 () Int)
(declare-fun lam25n1 () Int)
(declare-fun lam25n2 () Int)
(declare-fun lam15n0 () Int)
(declare-fun lam15n1 () Int)
(declare-fun lam15n2 () Int)
(declare-fun lam16n0 () Int)
(declare-fun lam16n1 () Int)
(declare-fun lam16n2 () Int)
(declare-fun lam19n0 () Int)
(declare-fun lam19n1 () Int)
(declare-fun lam19n2 () Int)
(declare-fun lam20n0 () Int)
(declare-fun lam20n1 () Int)
(declare-fun lam20n2 () Int)
(declare-fun lam23n0 () Int)
(declare-fun lam23n1 () Int)
(declare-fun lam23n2 () Int)
(declare-fun lam24n0 () Int)
(declare-fun lam24n1 () Int)
(declare-fun lam24n2 () Int)
(declare-fun lam14n0 () Int)
(declare-fun lam14n1 () Int)
(declare-fun lam14n2 () Int)
(declare-fun lam18n0 () Int)
(declare-fun lam18n1 () Int)
(declare-fun lam18n2 () Int)
(declare-fun lam22n0 () Int)
(declare-fun lam22n1 () Int)
(declare-fun lam22n2 () Int)
(assert ( and ( <= ( - 1 ) Nl2arg11 ) ( <= Nl2arg11 1 ) ( <= ( - 1 ) Nl2arg21 ) ( <= Nl2arg21 1 ) ( <= ( - 1 ) Nl4arg11 ) ( <= Nl4arg11 1 ) ( <= ( - 1 ) Nl4arg21 ) ( <= Nl4arg21 1 ) ( <= ( - 1 ) Nl2arg12 ) ( <= Nl2arg12 1 ) ( <= ( - 1 ) Nl2arg22 ) ( <= Nl2arg22 1 ) ( <= ( - 1 ) Nl4arg12 ) ( <= Nl4arg12 1 ) ( <= ( - 1 ) Nl4arg22 ) ( <= Nl4arg22 1 ) ))
(assert ( or ( and ( >= lam0n0 0 ) ( >= lam0n1 0 ) ( >= lam0n2 0 ) ( >= lam0n3 0 ) ( > ( + ( * 10 lam0n0 ) ( * ( - 49 ) lam0n1 ) ( * Nl2CT1 lam0n2 ) ( * Nl2CT2 lam0n3 ) ( - 1 ) ) 0 ) ( = ( + ( * ( - 1 ) lam0n0 ) ( * 1 lam0n1 ) ( * Nl2arg11 lam0n2 ) ( * Nl2arg12 lam0n3 ) ) 0 ) ( = ( + ( * Nl2arg21 lam0n2 ) ( * Nl2arg22 lam0n3 ) ) 0 ) ) ( and ( >= lam1n0 0 ) ( >= lam1n1 0 ) ( >= lam1n2 0 ) ( >= lam1n3 0 ) ( > ( + ( * 10 lam1n0 ) ( * ( - 49 ) lam1n1 ) ( * Nl2CT1 lam1n2 ) ( * Nl2CT2 lam1n3 ) ( - 1 ( + ( + Nl2CT1 ( * Nl2arg11 1 ) ) ( * Nl2arg21 0 ) ) ) ) 0 ) ( = ( + ( * ( - 1 ) lam1n0 ) ( * 1 lam1n1 ) ( * Nl2arg11 lam1n2 ) ( * Nl2arg12 lam1n3 ) ( - ( + 0 ( * Nl2arg11 1 ) ) ) ) 0 ) ( = ( + ( * Nl2arg21 lam1n2 ) ( * Nl2arg22 lam1n3 ) ) 0 ) ( = ( - ( + 0 ( * Nl2arg21 1 ) ) ) 0 ) ) ))
(assert ( or ( and ( >= lam0n0 0 ) ( >= lam0n1 0 ) ( >= lam0n2 0 ) ( >= lam0n3 0 ) ( > ( + ( * 10 lam0n0 ) ( * ( - 49 ) lam0n1 ) ( * Nl2CT1 lam0n2 ) ( * Nl2CT2 lam0n3 ) ( - 1 ) ) 0 ) ( = ( + ( * ( - 1 ) lam0n0 ) ( * 1 lam0n1 ) ( * Nl2arg11 lam0n2 ) ( * Nl2arg12 lam0n3 ) ) 0 ) ( = ( + ( * Nl2arg21 lam0n2 ) ( * Nl2arg22 lam0n3 ) ) 0 ) ) ( and ( >= lam2n0 0 ) ( >= lam2n1 0 ) ( >= lam2n2 0 ) ( >= lam2n3 0 ) ( > ( + ( * 10 lam2n0 ) ( * ( - 49 ) lam2n1 ) ( * Nl2CT1 lam2n2 ) ( * Nl2CT2 lam2n3 ) ( - 1 ( + ( + Nl2CT2 ( * Nl2arg12 1 ) ) ( * Nl2arg22 0 ) ) ) ) 0 ) ( = ( + ( * ( - 1 ) lam2n0 ) ( * 1 lam2n1 ) ( * Nl2arg11 lam2n2 ) ( * Nl2arg12 lam2n3 ) ( - ( + 0 ( * Nl2arg12 1 ) ) ) ) 0 ) ( = ( + ( * Nl2arg21 lam2n2 ) ( * Nl2arg22 lam2n3 ) ) 0 ) ( = ( - ( + 0 ( * Nl2arg22 1 ) ) ) 0 ) ) ))
(assert ( or ( and ( >= lam3n0 0 ) ( >= lam3n1 0 ) ( >= lam3n2 0 ) ( > ( + ( * ( - 9 ) lam3n0 ) ( * Nl2CT1 lam3n1 ) ( * Nl2CT2 lam3n2 ) ( - 1 ) ) 0 ) ( = ( + ( * 1 lam3n0 ) ( * Nl2arg11 lam3n1 ) ( * Nl2arg12 lam3n2 ) ) 0 ) ( = ( + ( * Nl2arg21 lam3n1 ) ( * Nl2arg22 lam3n2 ) ) 0 ) ) ( and ( >= lam4n0 0 ) ( >= lam4n1 0 ) ( >= lam4n2 0 ) ( > ( + ( * ( - 9 ) lam4n0 ) ( * Nl2CT1 lam4n1 ) ( * Nl2CT2 lam4n2 ) ( - 1 ( + Nl4CT1 ( * Nl4arg21 0 ) ) ) ) 0 ) ( = ( + ( * 1 lam4n0 ) ( * Nl2arg11 lam4n1 ) ( * Nl2arg12 lam4n2 ) ( - ( + 0 Nl4arg11 ) ) ) 0 ) ( = ( + ( * Nl2arg21 lam4n1 ) ( * Nl2arg22 lam4n2 ) ) 0 ) ) ))
(assert ( or ( and ( >= lam3n0 0 ) ( >= lam3n1 0 ) ( >= lam3n2 0 ) ( > ( + ( * ( - 9 ) lam3n0 ) ( * Nl2CT1 lam3n1 ) ( * Nl2CT2 lam3n2 ) ( - 1 ) ) 0 ) ( = ( + ( * 1 lam3n0 ) ( * Nl2arg11 lam3n1 ) ( * Nl2arg12 lam3n2 ) ) 0 ) ( = ( + ( * Nl2arg21 lam3n1 ) ( * Nl2arg22 lam3n2 ) ) 0 ) ) ( and ( >= lam5n0 0 ) ( >= lam5n1 0 ) ( >= lam5n2 0 ) ( > ( + ( * ( - 9 ) lam5n0 ) ( * Nl2CT1 lam5n1 ) ( * Nl2CT2 lam5n2 ) ( - 1 ( + Nl4CT2 ( * Nl4arg22 0 ) ) ) ) 0 ) ( = ( + ( * 1 lam5n0 ) ( * Nl2arg11 lam5n1 ) ( * Nl2arg12 lam5n2 ) ( - ( + 0 Nl4arg12 ) ) ) 0 ) ( = ( + ( * Nl2arg21 lam5n1 ) ( * Nl2arg22 lam5n2 ) ) 0 ) ) ))
(assert ( or ( and ( >= lam6n0 0 ) ( >= lam6n1 0 ) ( >= lam6n2 0 ) ( > ( + ( * ( - 14 ) lam6n0 ) ( * Nl4CT1 lam6n1 ) ( * Nl4CT2 lam6n2 ) ( - 1 ) ) 0 ) ( = ( + ( * Nl4arg11 lam6n1 ) ( * Nl4arg12 lam6n2 ) ) 0 ) ( = ( + ( * 1 lam6n0 ) ( * Nl4arg21 lam6n1 ) ( * Nl4arg22 lam6n2 ) ) 0 ) ) ( and ( >= lam7n0 0 ) ( >= lam7n1 0 ) ( >= lam7n2 0 ) ( > ( + ( * ( - 14 ) lam7n0 ) ( * Nl4CT1 lam7n1 ) ( * Nl4CT2 lam7n2 ) ( - 1 ( + Nl4CT1 ( * Nl4arg21 1 ) ) ) ) 0 ) ( = ( + ( * Nl4arg11 lam7n1 ) ( * Nl4arg12 lam7n2 ) ( - ( + 0 Nl4arg11 ) ) ) 0 ) ( = ( + ( * 1 lam7n0 ) ( * Nl4arg21 lam7n1 ) ( * Nl4arg22 lam7n2 ) ( - ( + 0 ( * Nl4arg21 1 ) ) ) ) 0 ) ) ))
(assert ( or ( and ( >= lam6n0 0 ) ( >= lam6n1 0 ) ( >= lam6n2 0 ) ( > ( + ( * ( - 14 ) lam6n0 ) ( * Nl4CT1 lam6n1 ) ( * Nl4CT2 lam6n2 ) ( - 1 ) ) 0 ) ( = ( + ( * Nl4arg11 lam6n1 ) ( * Nl4arg12 lam6n2 ) ) 0 ) ( = ( + ( * 1 lam6n0 ) ( * Nl4arg21 lam6n1 ) ( * Nl4arg22 lam6n2 ) ) 0 ) ) ( and ( >= lam8n0 0 ) ( >= lam8n1 0 ) ( >= lam8n2 0 ) ( > ( + ( * ( - 14 ) lam8n0 ) ( * Nl4CT1 lam8n1 ) ( * Nl4CT2 lam8n2 ) ( - 1 ( + Nl4CT2 ( * Nl4arg22 1 ) ) ) ) 0 ) ( = ( + ( * Nl4arg11 lam8n1 ) ( * Nl4arg12 lam8n2 ) ( - ( + 0 Nl4arg12 ) ) ) 0 ) ( = ( + ( * 1 lam8n0 ) ( * Nl4arg21 lam8n1 ) ( * Nl4arg22 lam8n2 ) ( - ( + 0 ( * Nl4arg22 1 ) ) ) ) 0 ) ) ))
(assert ( or ( and ( >= lam9n0 0 ) ( >= lam9n1 0 ) ( >= lam9n2 0 ) ( > ( + ( * 15 lam9n0 ) ( * Nl4CT1 lam9n1 ) ( * Nl4CT2 lam9n2 ) ( - 1 ) ) 0 ) ( = ( + ( * Nl4arg11 lam9n1 ) ( * Nl4arg12 lam9n2 ) ) 0 ) ( = ( + ( * ( - 1 ) lam9n0 ) ( * Nl4arg21 lam9n1 ) ( * Nl4arg22 lam9n2 ) ) 0 ) ) ( and ( >= lam10n0 0 ) ( >= lam10n1 0 ) ( >= lam10n2 0 ) ( > ( + ( * 15 lam10n0 ) ( * Nl4CT1 lam10n1 ) ( * Nl4CT2 lam10n2 ) ( - 1 ( + ( + Nl2CT1 ( * Nl2arg11 1 ) ) ( * Nl2arg21 0 ) ) ) ) 0 ) ( = ( + ( * Nl4arg11 lam10n1 ) ( * Nl4arg12 lam10n2 ) ( - ( + 0 ( * Nl2arg11 1 ) ) ) ) 0 ) ( = ( + ( * ( - 1 ) lam10n0 ) ( * Nl4arg21 lam10n1 ) ( * Nl4arg22 lam10n2 ) ) 0 ) ( = ( - ( + 0 ( * Nl2arg21 1 ) ) ) 0 ) ) ))
(assert ( or ( and ( >= lam9n0 0 ) ( >= lam9n1 0 ) ( >= lam9n2 0 ) ( > ( + ( * 15 lam9n0 ) ( * Nl4CT1 lam9n1 ) ( * Nl4CT2 lam9n2 ) ( - 1 ) ) 0 ) ( = ( + ( * Nl4arg11 lam9n1 ) ( * Nl4arg12 lam9n2 ) ) 0 ) ( = ( + ( * ( - 1 ) lam9n0 ) ( * Nl4arg21 lam9n1 ) ( * Nl4arg22 lam9n2 ) ) 0 ) ) ( and ( >= lam11n0 0 ) ( >= lam11n1 0 ) ( >= lam11n2 0 ) ( > ( + ( * 15 lam11n0 ) ( * Nl4CT1 lam11n1 ) ( * Nl4CT2 lam11n2 ) ( - 1 ( + ( + Nl2CT2 ( * Nl2arg12 1 ) ) ( * Nl2arg22 0 ) ) ) ) 0 ) ( = ( + ( * Nl4arg11 lam11n1 ) ( * Nl4arg12 lam11n2 ) ( - ( + 0 ( * Nl2arg12 1 ) ) ) ) 0 ) ( = ( + ( * ( - 1 ) lam11n0 ) ( * Nl4arg21 lam11n1 ) ( * Nl4arg22 lam11n2 ) ) 0 ) ( = ( - ( + 0 ( * Nl2arg22 1 ) ) ) 0 ) ) ))
(assert ( and ( = arg1 0 ) ( = ( + arg2 ( * ( - 1 ) undef2 ) ) 0 ) ( <= ( + Nl2CT1 ( * ( + 0 Nl2arg11 ) arg1 ) ( * ( + 0 Nl2arg21 ) arg2 ) ) 0 ) ( <= ( + Nl2CT2 ( * ( + 0 Nl2arg12 ) arg1 ) ( * ( + 0 Nl2arg22 ) arg2 ) ) 0 ) ))
(assert ( or ( and ( and ( and ( >= lam17n0 0 ) ( >= lam17n1 0 ) ( >= lam17n2 0 ) ( > ( + ( * ( - 9 ) lam17n0 ) ( * Nl2CT1 lam17n1 ) ( * Nl2CT2 lam17n2 ) ( - 1 ( - ( + RFN1_CT ( * RFN1_arg2 0 ) ) RFN1_CT ) ) ) 0 ) ( = ( + ( * 1 lam17n0 ) ( * Nl2arg11 lam17n1 ) ( * Nl2arg12 lam17n2 ) ( - ( - ( + 0 RFN1_arg1 ) RFN1_arg1 ) ) ) 0 ) ( = ( + ( * Nl2arg21 lam17n1 ) ( * Nl2arg22 lam17n2 ) ( - ( - RFN1_arg2 ) ) ) 0 ) ) ( and ( >= lam21n0 0 ) ( >= lam21n1 0 ) ( >= lam21n2 0 ) ( > ( + ( * ( - 14 ) lam21n0 ) ( * Nl4CT1 lam21n1 ) ( * Nl4CT2 lam21n2 ) ( - 1 ( - ( + RFN1_CT ( * RFN1_arg2 1 ) ) RFN1_CT ) ) ) 0 ) ( = ( + ( * Nl4arg11 lam21n1 ) ( * Nl4arg12 lam21n2 ) ( - ( - ( + 0 RFN1_arg1 ) RFN1_arg1 ) ) ) 0 ) ( = ( + ( * 1 lam21n0 ) ( * Nl4arg21 lam21n1 ) ( * Nl4arg22 lam21n2 ) ( - ( - ( + 0 ( * RFN1_arg2 1 ) ) RFN1_arg2 ) ) ) 0 ) ) ( and ( >= lam25n0 0 ) ( >= lam25n1 0 ) ( >= lam25n2 0 ) ( > ( + ( * 15 lam25n0 ) ( * Nl4CT1 lam25n1 ) ( * Nl4CT2 lam25n2 ) ( - 1 ( - ( + ( + RFN1_CT ( * RFN1_arg1 1 ) ) ( * RFN1_arg2 0 ) ) RFN1_CT ) ) ) 0 ) ( = ( + ( * Nl4arg11 lam25n1 ) ( * Nl4arg12 lam25n2 ) ( - ( - ( + 0 ( * RFN1_arg1 1 ) ) RFN1_arg1 ) ) ) 0 ) ( = ( + ( * ( - 1 ) lam25n0 ) ( * Nl4arg21 lam25n1 ) ( * Nl4arg22 lam25n2 ) ( - ( - RFN1_arg2 ) ) ) 0 ) ( = ( - ( + 0 ( * RFN1_arg2 1 ) ) ) 0 ) ) ) ( or ( and ( and ( >= lam15n0 0 ) ( >= lam15n1 0 ) ( >= lam15n2 0 ) ( > ( + ( * ( - 9 ) lam15n0 ) ( * Nl2CT1 lam15n1 ) ( * Nl2CT2 lam15n2 ) ( - 1 ( - RFN1_CT ) ) ) 0 ) ( = ( + ( * 1 lam15n0 ) ( * Nl2arg11 lam15n1 ) ( * Nl2arg12 lam15n2 ) ( - ( - RFN1_arg1 ) ) ) 0 ) ( = ( + ( * Nl2arg21 lam15n1 ) ( * Nl2arg22 lam15n2 ) ( - ( - RFN1_arg2 ) ) ) 0 ) ) ( and ( >= lam16n0 0 ) ( >= lam16n1 0 ) ( >= lam16n2 0 ) ( > ( + ( * ( - 9 ) lam16n0 ) ( * Nl2CT1 lam16n1 ) ( * Nl2CT2 lam16n2 ) ( - 1 ( + ( - ( + RFN1_CT ( * RFN1_arg2 0 ) ) RFN1_CT ) 1 ) ) ) 0 ) ( = ( + ( * 1 lam16n0 ) ( * Nl2arg11 lam16n1 ) ( * Nl2arg12 lam16n2 ) ( - ( - ( + 0 RFN1_arg1 ) RFN1_arg1 ) ) ) 0 ) ( = ( + ( * Nl2arg21 lam16n1 ) ( * Nl2arg22 lam16n2 ) ( - ( - RFN1_arg2 ) ) ) 0 ) ) ) ( and ( and ( >= lam19n0 0 ) ( >= lam19n1 0 ) ( >= lam19n2 0 ) ( > ( + ( * ( - 14 ) lam19n0 ) ( * Nl4CT1 lam19n1 ) ( * Nl4CT2 lam19n2 ) ( - 1 ( - RFN1_CT ) ) ) 0 ) ( = ( + ( * Nl4arg11 lam19n1 ) ( * Nl4arg12 lam19n2 ) ( - ( - RFN1_arg1 ) ) ) 0 ) ( = ( + ( * 1 lam19n0 ) ( * Nl4arg21 lam19n1 ) ( * Nl4arg22 lam19n2 ) ( - ( - RFN1_arg2 ) ) ) 0 ) ) ( and ( >= lam20n0 0 ) ( >= lam20n1 0 ) ( >= lam20n2 0 ) ( > ( + ( * ( - 14 ) lam20n0 ) ( * Nl4CT1 lam20n1 ) ( * Nl4CT2 lam20n2 ) ( - 1 ( + ( - ( + RFN1_CT ( * RFN1_arg2 1 ) ) RFN1_CT ) 1 ) ) ) 0 ) ( = ( + ( * Nl4arg11 lam20n1 ) ( * Nl4arg12 lam20n2 ) ( - ( - ( + 0 RFN1_arg1 ) RFN1_arg1 ) ) ) 0 ) ( = ( + ( * 1 lam20n0 ) ( * Nl4arg21 lam20n1 ) ( * Nl4arg22 lam20n2 ) ( - ( - ( + 0 ( * RFN1_arg2 1 ) ) RFN1_arg2 ) ) ) 0 ) ) ) ( and ( and ( >= lam23n0 0 ) ( >= lam23n1 0 ) ( >= lam23n2 0 ) ( > ( + ( * 15 lam23n0 ) ( * Nl4CT1 lam23n1 ) ( * Nl4CT2 lam23n2 ) ( - 1 ( - RFN1_CT ) ) ) 0 ) ( = ( + ( * Nl4arg11 lam23n1 ) ( * Nl4arg12 lam23n2 ) ( - ( - RFN1_arg1 ) ) ) 0 ) ( = ( + ( * ( - 1 ) lam23n0 ) ( * Nl4arg21 lam23n1 ) ( * Nl4arg22 lam23n2 ) ( - ( - RFN1_arg2 ) ) ) 0 ) ) ( and ( >= lam24n0 0 ) ( >= lam24n1 0 ) ( >= lam24n2 0 ) ( > ( + ( * 15 lam24n0 ) ( * Nl4CT1 lam24n1 ) ( * Nl4CT2 lam24n2 ) ( - 1 ( + ( - ( + ( + RFN1_CT ( * RFN1_arg1 1 ) ) ( * RFN1_arg2 0 ) ) RFN1_CT ) 1 ) ) ) 0 ) ( = ( + ( * Nl4arg11 lam24n1 ) ( * Nl4arg12 lam24n2 ) ( - ( - ( + 0 ( * RFN1_arg1 1 ) ) RFN1_arg1 ) ) ) 0 ) ( = ( + ( * ( - 1 ) lam24n0 ) ( * Nl4arg21 lam24n1 ) ( * Nl4arg22 lam24n2 ) ( - ( - RFN1_arg2 ) ) ) 0 ) ( = ( - ( + 0 ( * RFN1_arg2 1 ) ) ) 0 ) ) ) ) ) ( or ( and ( >= lam14n0 0 ) ( >= lam14n1 0 ) ( >= lam14n2 0 ) ( > ( + ( * ( - 9 ) lam14n0 ) ( * Nl2CT1 lam14n1 ) ( * Nl2CT2 lam14n2 ) ( - 1 ) ) 0 ) ( = ( + ( * 1 lam14n0 ) ( * Nl2arg11 lam14n1 ) ( * Nl2arg12 lam14n2 ) ) 0 ) ( = ( + ( * Nl2arg21 lam14n1 ) ( * Nl2arg22 lam14n2 ) ) 0 ) ) ( and ( >= lam18n0 0 ) ( >= lam18n1 0 ) ( >= lam18n2 0 ) ( > ( + ( * ( - 14 ) lam18n0 ) ( * Nl4CT1 lam18n1 ) ( * Nl4CT2 lam18n2 ) ( - 1 ) ) 0 ) ( = ( + ( * Nl4arg11 lam18n1 ) ( * Nl4arg12 lam18n2 ) ) 0 ) ( = ( + ( * 1 lam18n0 ) ( * Nl4arg21 lam18n1 ) ( * Nl4arg22 lam18n2 ) ) 0 ) ) ( and ( >= lam22n0 0 ) ( >= lam22n1 0 ) ( >= lam22n2 0 ) ( > ( + ( * 15 lam22n0 ) ( * Nl4CT1 lam22n1 ) ( * Nl4CT2 lam22n2 ) ( - 1 ) ) 0 ) ( = ( + ( * Nl4arg11 lam22n1 ) ( * Nl4arg12 lam22n2 ) ) 0 ) ( = ( + ( * ( - 1 ) lam22n0 ) ( * Nl4arg21 lam22n1 ) ( * Nl4arg22 lam22n2 ) ) 0 ) ) ) ))
(check-sat)
(exit)
